num_offers = 35;
num_halls = 10;
start=[8,4,41,43,49,43,56,21,4,20,52,34,17,13,10,24,55,36,64,5,72,62,25,25,6,93,60,60,18,50,18,38,17,25,28];
end=[61,37,80,56,86,98,89,77,95,32,89,79,21,55,100,68,66,93,71,92,76,92,30,94,63,99,91,81,81,74,51,67,41,94,88];
price=[1368,2612,1858,775,1560,1908,2906,2239,8103,779,2987,1870,400,3228,2168,2128,207,3263,101,5908,389,465,240,5798,3996,433,2735,1509,2609,825,2525,1043,2186,2298,5182];
requirement=[610,406,252,335,579,497,592,726,953,306,272,398,451,375,970,813,830,522,232,482,280,946,694,769,248,248,286,522,687,347,275,875,784,824,621];
capacity=[838,338,242,600,747,927,235,305,584,665];
